311,286
491,32
681,166
658,258
778,336
857,648
874,672
681,46
415,213
414,270
491,32
705,389
829,554
778,336
948,270
504,753
524,891
690,434
705,389
690,434
609,458
361,569
311,286
351,406
414,542
463,564
655,393
658,258
914,173
1006,355
618,469
